dates = {'2022-06-02','2022-06-03','2022-06-04','2022-06-05','2022-06-06','2022-06-07','2022-06-08','2022-06-09','2022-06-10','2022-06-11','2022-06-12','2022-06-13','2022-06-14','2022-06-15','2022-06-16','2022-06-17','2022-06-18','2022-06-19','2022-06-20','2022-06-21','2022-06-22','2022-06-23','2022-06-24','2022-06-25','2022-06-26','2022-06-27','2022-06-28','2022-06-29','2022-06-30','2022-07-01','2022-07-02','2022-07-03','2022-07-04','2022-07-05','2022-07-06','2022-07-07','2022-07-08','2022-07-09','2022-07-10','2022-07-11','2022-07-12','2022-07-13','2022-07-14','2022-07-15','2022-07-16','2022-07-17','2022-07-18','2022-07-19','2022-07-20','2022-07-21','2022-07-22','2022-07-23','2022-07-24','2022-07-25','2022-07-26','2022-07-27','2022-07-28','2022-07-29','2022-07-30','2022-07-31'};

daysOfWeek = [Thursday,Friday,Saturday,Sunday,Monday,Tuesday,Wednesday,Thursday,Friday,Saturday,Sunday,Monday,Tuesday,Wednesday,Thursday,Friday,Saturday,Sunday,Monday,Tuesday,Wednesday,Thursday,Friday,Saturday,Sunday,Monday,Tuesday,Wednesday,Thursday,Friday,Saturday,Sunday,Monday,Tuesday,Wednesday,Thursday,Friday,Saturday,Sunday,Monday,Tuesday,Wednesday,Thursday,Friday,Saturday,Sunday,Monday,Tuesday,Wednesday,Thursday,Friday,Saturday,Sunday,Monday,Tuesday,Wednesday,Thursday,Friday,Saturday,Sunday];

% For this week, how many people will be here.
numPeople = [25,25,25,25,25,25,25,25,25,25,25,25,25,25,25,25,25,25,25,25,25,25,25,25
,25,25,25,25,25,25,25,25,25,25,25,25,25,25,25,25,25,25,25,25,25,25,25,25
,25,25,25,25,25,25,25,25,25,25,25,25];

% Physical workers need 50 to 100 % more nutrients per day.
numPhysicalWorkers = [13.0,13.0,13.0,13.0,13.0,13.0,13.0,13.0,13.0,13.0,13.0,13.0,13.0,13.0,13.0,13.0,13.0,13.0
,13.0,13.0,13.0,13.0,13.0,13.0,13.0,13.0,13.0,13.0,13.0,13.0,13.0,13.0,13.0,13.0,13.0,13.0
,13.0,13.0,13.0,13.0,13.0,13.0,13.0,13.0,13.0,13.0,13.0,13.0,13.0,13.0,13.0,13.0,13.0,13.0
,13.0,13.0,13.0,13.0,13.0,13.0];

% Males need +25% more nutrients per day.
numMen = [19,19,19,19,19,19,19,19,19,19,19,19,19,19,19,19,19,19,19,19,19,19,19,19
,19,19,19,19,19,19,19,19,19,19,19,19,19,19,19,19,19,19,19,19,19,19,19,19
,19,19,19,19,19,19,19,19,19,19,19,19];

% Num people who do not eat categories. contains = {none, meat, milk, gluten, egg, nut, seed, sugars}
numRefusals = [| 0,0,0,4,0,0,1,0 | 0,0,0,4,0,0,1,0 | 0,0,0,4,0,0,1,0 | 0,0,0,4,0,0,1,0 | 0,0,0,4,0,0,1,0 | 0,0,0,4,0,0,1,0 | 0,0,0,4,0,0,1,0 | 0,0,0,4,0,0,1,0 | 0,0,0,4,0,0,1,0 | 0,0,0,4,0,0,1,0 | 0,0,0,4,0,0,1,0 | 0,0,0,4,0,0,1,0 | 0,0,0,4,0,0,1,0 | 0,0,0,4,0,0,1,0 | 0,0,0,4,0,0,1,0 | 0,0,0,4,0,0,1,0 | 0,0,0,4,0,0,1,0 | 0,0,0,4,0,0,1,0 | 0,0,0,4,0,0,1,0 | 0,0,0,4,0,0,1,0 | 0,0,0,4,0,0,1,0 | 0,0,0,4,0,0,1,0 | 0,0,0,4,0,0,1,0 | 0,0,0,4,0,0,1,0 | 0,0,0,4,0,0,1,0 | 0,0,0,4,0,0,1,0 | 0,0,0,4,0,0,1,0 | 0,0,0,4,0,0,1,0 | 0,0,0,4,0,0,1,0 | 0,0,0,4,0,0,1,0 | 0,0,0,4,0,0,1,0 | 0,0,0,4,0,0,1,0 | 0,0,0,4,0,0,1,0 | 0,0,0,4,0,0,1,0 | 0,0,0,4,0,0,1,0 | 0,0,0,4,0,0,1,0 | 0,0,0,4,0,0,1,0 | 0,0,0,4,0,0,1,0 | 0,0,0,4,0,0,1,0 | 0,0,0,4,0,0,1,0 | 0,0,0,4,0,0,1,0 | 0,0,0,4,0,0,1,0 | 0,0,0,4,0,0,1,0 | 0,0,0,4,0,0,1,0 | 0,0,0,4,0,0,1,0 | 0,0,0,4,0,0,1,0 | 0,0,0,4,0,0,1,0 | 0,0,0,4,0,0,1,0 | 0,0,0,4,0,0,1,0 | 0,0,0,4,0,0,1,0 | 0,0,0,4,0,0,1,0 | 0,0,0,4,0,0,1,0 | 0,0,0,4,0,0,1,0 | 0,0,0,4,0,0,1,0 | 0,0,0,4,0,0,1,0 | 0,0,0,4,0,0,1,0 | 0,0,0,4,0,0,1,0 | 0,0,0,4,0,0,1,0 | 0,0,0,4,0,0,1,0 | 0,0,0,4,0,0,1,0 |];

